(declare-fun temp2994_2 () (_ BitVec 64))
(declare-fun temp2994_1 () (_ BitVec 64))
(declare-fun temp2994_3 () (_ BitVec 64))
(declare-fun var2166536 () (_ BitVec 64))
(declare-fun temp2994_5 () (_ BitVec 64))
(declare-fun temp2994_4 () (_ BitVec 64))
(declare-fun temp2994_6 () (_ BitVec 64))
(declare-fun var4659636 () (_ BitVec 64))
(declare-fun temp2994_7 () (_ BitVec 64))
(declare-fun var5703478 () (_ BitVec 64))
(declare-fun var5902556 () (_ BitVec 64))
(declare-fun temp2994_8 () (_ BitVec 64))
(declare-fun var6686699 () (_ BitVec 64))
(declare-fun ARGNAME_input_NAMEEND_DIM () (_ BitVec 64))
(declare-fun temp2994_10 () (_ BitVec 64))
(declare-fun temp2994_9 () (_ BitVec 64))
(declare-fun var6753143 () (_ BitVec 64))
(declare-fun temp2994_11 () (_ BitVec 64))
(declare-fun var6819592 () (_ BitVec 64))
(declare-fun var6885137 () (_ BitVec 64))
(declare-fun temp2994_13 () (_ BitVec 64))
(declare-fun temp2994_12 () (_ BitVec 64))
(declare-fun temp2994_14 () (_ BitVec 64))
(declare-fun var7081719 () (_ BitVec 64))
(declare-fun temp2994_15 () (_ BitVec 64))
(declare-fun var6686760 () (_ BitVec 64))
(declare-fun temp2994_16 () (_ BitVec 64))
(declare-fun var6686802 () (_ BitVec 64))
(declare-fun temp2994_18 () (_ BitVec 64))
(declare-fun temp2994_17 () (_ BitVec 64))
(declare-fun temp2994_19 () (_ BitVec 64))
(declare-fun var7670776 () (_ BitVec 64))
(declare-fun var6686747 () (_ BitVec 64))
(declare-fun var6686746 () (_ BitVec 64))
(declare-fun temp2994_20 () (_ BitVec 64))
(declare-fun var6686751 () (_ BitVec 64))
(declare-fun temp2994_21 () (_ BitVec 64))
(declare-fun var6686753 () (_ BitVec 64))
(declare-fun temp2994_22 () (_ BitVec 64))
(declare-fun temp2994_23 () (_ BitVec 64))
(declare-fun var8981658 () (_ BitVec 64))
(declare-fun temp2994_24 () (_ BitVec 64))
(declare-fun var9373902 () (_ BitVec 64))
(declare-fun temp2994_25 () (_ BitVec 64))
(declare-fun var9373979 () (_ BitVec 64))
(declare-fun var9373900 () (_ BitVec 64))
(declare-fun var204433 () (_ BitVec 64))
(declare-fun temp2994_26 () (_ BitVec 64))
(declare-fun var11094839 () (_ BitVec 64))
(assert (= temp2994_2 #x0000000000000000))
(assert (= temp2994_1 temp2994_2))
(assert (= temp2994_3 #x0000000000000005))
(assert (= var2166536 temp2994_3))
(assert (= temp2994_5 #x0000000000000000))
(assert (= temp2994_4 temp2994_5))
(assert (= temp2994_6 #x0000000000000000))
(assert (= var4659636 temp2994_6))
(assert (= temp2994_7 #x0000000000000000))
(assert (= var5703478 temp2994_7))
(assert (= var5902556 var5703478))
(assert (= temp2994_8 #x0000000000000001))
(assert (= var6686699 (bvshl ARGNAME_input_NAMEEND_DIM temp2994_8)))
(assert (= temp2994_10 #x0000000000000000))
(assert (= temp2994_9 temp2994_10))
(assert (= var6753143 var6686699))
(assert (= temp2994_11 #x0000000000000005))
(assert (= var6819592 temp2994_11))
(assert (= var6885137 var6753143))
(assert (= temp2994_13 #x0000000000000000))
(assert (= temp2994_12 temp2994_13))
(assert (= temp2994_14 #x0000000000000000))
(assert (= var7081719 temp2994_14))
(assert (= temp2994_15 #x0000000000000000))
(assert (= var6686760 temp2994_15))
(assert (= temp2994_16 #x0000000000000001))
(assert (= var6686802 temp2994_16))
(assert (= temp2994_18 #x0000000000000000))
(assert (= temp2994_17 temp2994_18))
(assert (= temp2994_19 #x0000000000000001))
(assert (= var7670776 temp2994_19))
(assert (= var6686747 var6686802))
(assert (= var6686746 var6686747))
(assert (= temp2994_20 #x0000000000000001))
(assert (= var6686751 (bvand var6686746 temp2994_20)))
(assert (= temp2994_21 #x0000000000000000))
(assert (= var6686753
   (ite (= var6686751 temp2994_21) #x0000000000000001 #x0000000000000000)))
(assert (= temp2994_22 #x0000000000000000))
(assert (= var6686753 temp2994_22))
(assert (= temp2994_23 #x0000000000000000))
(assert (= var8981658 temp2994_23))
(assert (= temp2994_24 #x0000000000000001))
(assert (= var9373902 temp2994_24))
(assert (= temp2994_25 #x0000000000000001))
(assert (= var9373979 temp2994_25))
(assert (= var9373900 var9373979))
(assert (= var204433 var9373900))
(assert (= temp2994_26 #x000000000000003b))
(assert (= var11094839 temp2994_26))
(model-add temp2994_2 () (_ BitVec 64) #x0000000000000000)
(model-add temp2994_1 () (_ BitVec 64) #x0000000000000000)
(model-add temp2994_3 () (_ BitVec 64) #x0000000000000005)
(model-add var2166536 () (_ BitVec 64) #x0000000000000005)
(model-add temp2994_5 () (_ BitVec 64) #x0000000000000000)
(model-add temp2994_4 () (_ BitVec 64) #x0000000000000000)
(model-add temp2994_6 () (_ BitVec 64) #x0000000000000000)
(model-add var4659636 () (_ BitVec 64) #x0000000000000000)
(model-add temp2994_7 () (_ BitVec 64) #x0000000000000000)
(model-add var5703478 () (_ BitVec 64) #x0000000000000000)
(model-add var5902556 () (_ BitVec 64) #x0000000000000000)
(model-add temp2994_8 () (_ BitVec 64) #x0000000000000001)
(model-add var6686699
           ()
           (_ BitVec 64)
           (concat ((_ extract 62 0) ARGNAME_input_NAMEEND_DIM) #b0))
(model-add temp2994_10 () (_ BitVec 64) #x0000000000000000)
(model-add temp2994_9 () (_ BitVec 64) #x0000000000000000)
(model-add var6753143
           ()
           (_ BitVec 64)
           (concat ((_ extract 62 0) ARGNAME_input_NAMEEND_DIM) #b0))
(model-add temp2994_11 () (_ BitVec 64) #x0000000000000005)
(model-add var6819592 () (_ BitVec 64) #x0000000000000005)
(model-add var6885137
           ()
           (_ BitVec 64)
           (concat ((_ extract 62 0) ARGNAME_input_NAMEEND_DIM) #b0))
(model-add temp2994_13 () (_ BitVec 64) #x0000000000000000)
(model-add temp2994_12 () (_ BitVec 64) #x0000000000000000)
(model-add temp2994_14 () (_ BitVec 64) #x0000000000000000)
(model-add var7081719 () (_ BitVec 64) #x0000000000000000)
(model-add temp2994_15 () (_ BitVec 64) #x0000000000000000)
(model-add var6686760 () (_ BitVec 64) #x0000000000000000)
(model-add temp2994_16 () (_ BitVec 64) #x0000000000000001)
(model-add var6686802 () (_ BitVec 64) #x0000000000000001)
(model-add temp2994_18 () (_ BitVec 64) #x0000000000000000)
(model-add temp2994_17 () (_ BitVec 64) #x0000000000000000)
(model-add temp2994_19 () (_ BitVec 64) #x0000000000000001)
(model-add var7670776 () (_ BitVec 64) #x0000000000000001)
(model-add var6686747 () (_ BitVec 64) #x0000000000000001)
(model-add var6686746 () (_ BitVec 64) #x0000000000000001)
(model-add temp2994_20 () (_ BitVec 64) #x0000000000000001)
(model-add var6686751 () (_ BitVec 64) #x0000000000000001)
(model-add temp2994_21 () (_ BitVec 64) #x0000000000000000)
(model-add var6686753 () (_ BitVec 64) #x0000000000000000)
(model-add temp2994_22 () (_ BitVec 64) #x0000000000000000)



